
Gurobi 11.0.3 (mac64[x86]) logging started Tue Apr 15 17:34:41 2025

Set parameter LogFile to value "Results/SanityCheck/try_19_big.log"
Set parameter TimeLimit to value 84600
Set parameter Method to value 2
Set parameter Crossover to value 0
Set parameter BarHomogeneous to value 1
Set parameter BarConvTol to value 1e-10
Gurobi Optimizer version 11.0.3 build v11.0.3rc0 (mac64[x86] - Darwin 23.4.0 23E214)

CPU model: Intel(R) Core(TM) i7-1060NG7 CPU @ 1.20GHz
Thread count: 4 physical cores, 8 logical processors, using up to 8 threads

Optimize a model with 1635088 rows, 1917920 columns and 7351344 nonzeros
Model fingerprint: 0x7cadaab7
Coefficient statistics:
  Matrix range     [2e-01, 1e+00]
  Objective range  [6e-05, 5e+00]
  Bounds range     [0e+00, 0e+00]
  RHS range        [1e-02, 3e+03]
Presolve removed 1404996 rows and 1529664 columns (presolve time = 5s) ...
Presolve removed 1405092 rows and 1529664 columns
Presolve time: 5.43s
Presolved: 229996 rows, 388352 columns, 1468816 nonzeros
Ordering time: 0.56s

Barrier statistics:
 AA' NZ     : 4.593e+05
 Factor NZ  : 5.906e+06 (roughly 80 MB of memory)
 Factor Ops : 4.034e+09 (less than 1 second per iteration)
 Threads    : 4

                  Objective                Residual
Iter       Primal          Dual         Primal    Dual     Compl     Time
   0   7.61337340e+06  1.73151233e+11  1.49e+04 6.23e+03  4.13e+07     7s
   1  -1.53589615e+07  8.74533272e+10  4.25e+03 6.94e+03  1.36e+07     7s
   2  -1.66490902e+07  7.66841754e+09  1.02e+03 6.30e+02  1.76e+06     7s
   3  -1.56997866e+07  2.01062929e+09  6.41e+01 2.49e+01  1.12e+05     7s
   4  -7.30743410e+06  2.85114996e+08  5.63e+00 3.35e+00  8.57e+03     7s
   5  -3.73262565e+06  1.52495883e+07  3.86e-01 1.47e-01  3.96e+02     8s
   6  -8.02509674e+05  1.32360971e+06  6.04e-02 2.68e-02  3.65e+01     8s
   7  -1.55494834e+04  9.45883304e+04  2.31e-03 7.92e-04  1.77e+00     8s
   8   1.11712302e+04  3.25506495e+04  4.81e-04 1.01e-04  3.32e-01     8s
   9   1.77229288e+04  2.28896423e+04  9.21e-05 5.82e-06  7.77e-02     8s
  10   1.89450056e+04  2.09884860e+04  3.27e-05 5.84e-12  2.95e-02     9s
  11   1.94080313e+04  2.03107500e+04  1.32e-05 2.70e-12  1.26e-02     9s
  12   1.96035435e+04  2.00783337e+04  6.72e-06 1.45e-12  6.50e-03     9s
  13   1.96855356e+04  1.99684863e+04  4.39e-06 7.82e-13  3.82e-03     9s
  14   1.97551901e+04  1.99269162e+04  2.58e-06 4.98e-13  2.30e-03     9s
  15   1.98012301e+04  1.99010801e+04  1.41e-06 3.14e-13  1.33e-03     9s
  16   1.98405367e+04  1.98773166e+04  5.13e-07 1.40e-12  4.88e-04    10s
  17   1.98551960e+04  1.98684295e+04  1.81e-07 5.36e-13  1.75e-04    10s
  18   1.98610562e+04  1.98651107e+04  5.50e-08 2.07e-12  5.36e-05    10s
  19   1.98631738e+04  1.98638930e+04  9.94e-09 2.31e-11  9.50e-06    10s
  20   1.98635429e+04  1.98636932e+04  1.94e-09 1.96e-11  1.99e-06    11s
  21   1.98636204e+04  1.98636364e+04  2.30e-10 6.69e-10  2.12e-07    11s
  22   1.98636275e+04  1.98636312e+04  7.47e-11 3.47e-09  4.78e-08    11s
  23   1.98636295e+04  1.98636310e+04  6.55e-07 7.02e-10  2.01e-08    11s
  24   1.98636303e+04  1.98636309e+04  1.15e-06 1.62e-10  8.27e-09    11s
  25   1.98636305e+04  1.98636309e+04  8.72e-07 1.75e-11  6.19e-09    12s
  26   1.98636309e+04  1.98636309e+04  1.18e-08 4.55e-12  1.27e-11    12s

Barrier solved model in 26 iterations and 11.84 seconds (8.74 work units)
Optimal objective 1.98636309e+04


Gurobi 11.0.3 (mac64[x86]) logging started Tue Apr 15 17:36:50 2025

Set parameter LogFile to value "Results/SanityCheck/try_19_big.log"
Set parameter TimeLimit to value 84600
Set parameter Method to value 2
Set parameter Crossover to value 0
Set parameter BarHomogeneous to value 1
Set parameter BarConvTol to value 1e-10
Gurobi Optimizer version 11.0.3 build v11.0.3rc0 (mac64[x86] - Darwin 23.4.0 23E214)

CPU model: Intel(R) Core(TM) i7-1060NG7 CPU @ 1.20GHz
Thread count: 4 physical cores, 8 logical processors, using up to 8 threads

Optimize a model with 3423440 rows, 3705248 columns and 14693232 nonzeros
Model fingerprint: 0xf85d40ff
Coefficient statistics:
  Matrix range     [2e-01, 1e+00]
  Objective range  [6e-05, 5e+00]
  Bounds range     [0e+00, 0e+00]
  RHS range        [1e-02, 3e+03]
Presolve removed 1939312 rows and 2540000 columns (presolve time = 6s) ...
Presolve removed 3190254 rows and 3325828 columns
Presolve time: 10.35s
Presolved: 233186 rows, 379420 columns, 1649139 nonzeros
Ordering time: 0.04s

Barrier statistics:
 Dense cols : 28
 AA' NZ     : 1.257e+05
 Factor NZ  : 5.089e+05 (roughly 13 MB of memory)
 Factor Ops : 3.795e+07 (less than 1 second per iteration)
 Threads    : 4

                  Objective                Residual
Iter       Primal          Dual         Primal    Dual     Compl     Time
   0   1.23616919e+07  1.35454723e+08  9.43e+04 1.17e+01  3.12e+05    11s
   1   9.40648923e+05  9.75027497e+07  4.67e+04 1.15e+01  1.06e+05    11s
   2  -8.27146886e+06  4.08994004e+07  1.11e+04 4.53e-01  1.73e+04    11s
   3  -4.11224115e+06  5.77022134e+06  2.32e+03 5.28e-02  3.66e+03    11s
   4  -1.02876089e+06  9.34359788e+05  6.30e+02 6.77e-03  8.93e+02    11s
   5  -2.12912525e+05  2.28228809e+05  1.77e+02 1.29e-04  2.01e+02    11s
   6  -9.55918962e+04  1.51998910e+05  9.39e+01 2.96e-12  1.02e+02    11s
   7  -3.74881960e+04  9.94150041e+04  4.43e+01 3.12e-12  4.92e+01    11s
   8   7.76966722e+03  6.55451552e+04  1.07e+01 4.68e-12  1.43e+01    11s
   9   1.41263860e+04  4.20605624e+04  4.28e+00 5.25e-12  5.73e+00    11s
  10   1.68225797e+04  2.79903289e+04  1.90e+00 1.81e-11  2.02e+00    11s
  11   1.81158616e+04  2.36834716e+04  1.05e+00 4.21e-12  9.53e-01    11s
  12   1.90722734e+04  2.12321563e+04  4.35e-01 1.84e-12  3.35e-01    11s
  13   1.93892434e+04  2.04638633e+04  2.40e-01 1.18e-12  1.63e-01    11s
  14   1.95963441e+04  2.00450090e+04  1.07e-01 7.46e-13  6.67e-02    11s
  15   1.96973057e+04  1.99020000e+04  5.86e-02 1.30e-12  3.14e-02    11s
  16   1.97537097e+04  1.98555597e+04  2.85e-02 8.24e-13  1.54e-02    11s
  17   1.97785425e+04  1.98467903e+04  1.73e-02 9.94e-13  1.01e-02    11s
  18   1.97962518e+04  1.98353180e+04  9.11e-03 2.23e-12  5.64e-03    11s
  19   1.98051580e+04  1.98243919e+04  5.22e-03 4.18e-12  2.88e-03    11s
  20   1.98130673e+04  1.98207413e+04  2.00e-03 2.50e-11  1.14e-03    11s
  21   1.98165587e+04  1.98196108e+04  5.91e-04 2.03e-11  4.22e-04    11s
  22   1.98172056e+04  1.98183643e+04  3.42e-04 1.83e-10  1.77e-04    11s
  23   1.98176973e+04  1.98181846e+04  1.57e-04 1.69e-10  7.64e-05    11s
  24   1.98178726e+04  1.98181124e+04  9.00e-05 8.22e-10  3.94e-05    11s
  25   1.98180361e+04  1.98181044e+04  2.49e-05 8.83e-10  1.11e-05    11s
  26   1.98180653e+04  1.98181014e+04  1.34e-05 7.85e-09  5.90e-06    11s
  27   1.98180985e+04  1.98180992e+04  2.39e-07 1.87e-09  1.10e-07    11s
  28   1.98180989e+04  1.98180991e+04  1.30e-07 2.71e-09  2.53e-08    11s
  29   1.98180991e+04  1.98180991e+04  7.59e-08 1.97e-10  2.80e-10    11s
  30   1.98180991e+04  1.98180991e+04  4.25e-09 1.53e-10  9.66e-13    11s

Barrier solved model in 30 iterations and 11.36 seconds (6.72 work units)
Optimal objective 1.98180991e+04

